Minimize
  - 71 y_0 - 101 y_1 - 32 y_2 - 95 y_3 - 106 y_4 - 111 y_5 - 115 y_6
   - 61 y_7 - 96 y_8 - 37 y_10 - 87 y_11 - 71 y_12 - 24 y_13 - 90 y_14
   - 101 y_15 - 69 y_16 - 84 y_17 - 32 y_18 - 73 y_19 + 1456 Constant
Subject To
 c_0: y_18 = 1
 c_1_0: y_0 + y_11 + y_19 >= 1
 c_1_1: y_1 + y_3 >= 1
 c_1_2: y_2 + y_13 >= 1
 c_1_3: y_1 + y_3 >= 1
 c_1_4: y_4 + y_5 + y_6 + y_8 + y_15 >= 1
 c_1_5: y_4 + y_5 + y_6 + y_15 >= 1
 c_1_6: y_4 + y_5 + y_6 + y_15 >= 1
 c_1_7: y_7 >= 1
 c_1_8: y_4 + y_8 + y_15 >= 1
 c_1_9: y_9 >= 1
 c_1_10: y_10 + y_18 >= 1
 c_1_11: y_0 + y_11 + y_19 >= 1
 c_1_12: y_12 >= 1
 c_1_13: y_2 + y_13 >= 1
 c_1_14: y_14 + y_15 + y_17 >= 1
 c_1_15: y_4 + y_5 + y_6 + y_8 + y_14 + y_15 + y_17 >= 1
 c_1_16: y_16 + y_17 >= 1
 c_1_17: y_14 + y_15 + y_16 + y_17 >= 1
 c_1_18: y_10 + y_18 >= 1
 c_1_19: y_0 + y_11 + y_19 >= 1
Bounds
 Constant = 1
Binaries
 y_0 y_1 y_2 y_3 y_4 y_5 y_6 y_7 y_8 y_9 y_10 y_11 y_12 y_13 y_14 y_15 y_16
 y_17 y_18 y_19
End
